
Gurobi 10.0.1 (linux64) logging started Wed May 31 13:27:00 2023

Set parameter LogFile to value "logFiles/A-2L-A/A-2L-6U-23F-15V-180D-basic.log"
Gurobi Optimizer version 10.0.1 build v10.0.1rc0 (linux64)

CPU model: Intel(R) Xeon(R) Gold 5115 CPU @ 2.40GHz, instruction set [SSE2|AVX|AVX2|AVX512]
Thread count: 20 physical cores, 40 logical processors, using up to 20 threads

Optimize a model with 35462 rows, 627178 columns and 4086033 nonzeros
Model fingerprint: 0x5892e50f
Variable types: 1470 continuous, 625708 integer (625708 binary)
Coefficient statistics:
  Matrix range     [1e+00, 2e+05]
  Objective range  [4e+01, 2e+07]
  Bounds range     [1e+00, 1e+00]
  RHS range        [1e+00, 3e+06]
Presolve removed 13755 rows and 12692 columns (presolve time = 5s) ...
Presolve removed 13755 rows and 12692 columns (presolve time = 10s) ...
Presolve removed 13755 rows and 12692 columns (presolve time = 15s) ...
Presolve removed 13693 rows and 12681 columns
Presolve time: 17.18s
Presolved: 21769 rows, 614497 columns, 3284832 nonzeros
Variable types: 1475 continuous, 613022 integer (612994 binary)
Deterministic concurrent LP optimizer: primal simplex, dual simplex, and barrier
Showing barrier log only...

Root barrier log...

Ordering time: 0.86s

Barrier statistics:
 AA' NZ     : 1.548e+06
 Factor NZ  : 1.506e+07 (roughly 400 MB of memory)
 Factor Ops : 3.769e+10 (less than 1 second per iteration)
 Threads    : 17

                  Objective                Residual
Iter       Primal          Dual         Primal    Dual     Compl     Time
   0  -4.51800081e+16  1.24605986e+12  5.23e+09 4.38e+05  1.25e+11    24s
   1  -1.02292897e+16  2.26512454e+12  1.19e+09 3.66e+05  2.86e+10    24s
   2  -1.16828770e+15  2.50427745e+12  1.36e+08 1.65e+03  3.33e+09    25s
   3  -4.40998675e+13  1.46109815e+12  5.15e+06 2.21e+01  1.27e+08    25s
   4  -1.53310051e+13  4.57053591e+11  1.79e+06 1.16e-09  4.49e+07    26s
   5  -7.55225329e+12  3.77637016e+11  8.81e+05 9.31e-10  2.26e+07    26s
   6  -1.22325855e+12  2.98761281e+11  1.43e+05 8.73e-10  3.87e+06    27s
   7  -5.04454551e+11  2.63708237e+11  5.90e+04 8.15e-10  1.68e+06    27s
   8  -1.55563296e+11  1.95206192e+11  1.83e+04 8.15e-10  5.90e+05    27s
   9  -1.95662661e+10  6.89460426e+10  2.41e+03 1.16e-09  1.02e+05    28s
  10  -3.58599813e+09  2.33595127e+10  5.53e+02 1.83e-09  2.69e+04    28s
  11  -8.78674384e+08  6.13721924e+09  2.42e+02 1.63e-09  7.50e+03    29s
  12   4.24937070e+08  3.90235923e+09  9.20e+01 2.10e-09  3.49e+03    29s
  13   8.07021719e+08  3.55814799e+09  4.81e+01 1.98e-09  2.58e+03    30s
  14   9.19860611e+08  2.91181768e+09  3.52e+01 2.91e-09  1.87e+03    30s
  15   9.63015703e+08  2.34007437e+09  3.03e+01 4.13e-09  1.33e+03    31s
  16   1.08420070e+09  1.89326117e+09  1.66e+01 6.00e-09  7.67e+02    31s
  17   1.10791020e+09  1.69638200e+09  1.40e+01 7.04e-09  5.62e+02    31s
  18   1.13371438e+09  1.56641314e+09  1.11e+01 9.08e-09  4.12e+02    32s
  19   1.13853847e+09  1.53340046e+09  1.06e+01 1.07e-08  3.76e+02    32s
  20   1.17591283e+09  1.43745166e+09  6.49e+00 7.29e-09  2.41e+02    33s
  21   1.19378140e+09  1.38071578e+09  4.57e+00 7.68e-09  1.68e+02    33s
  22   1.20427927e+09  1.35194500e+09  3.50e+00 8.50e-09  1.30e+02    34s
  23   1.21819250e+09  1.30816818e+09  2.14e+00 8.27e-09  7.53e+01    34s
  24   1.22311938e+09  1.29340347e+09  1.69e+00 8.38e-09  5.75e+01    35s
  25   1.22633705e+09  1.28558580e+09  1.41e+00 1.04e-08  4.78e+01    35s
  26   1.22827932e+09  1.27942261e+09  1.25e+00 1.22e-08  4.07e+01    36s
  27   1.23155970e+09  1.27445862e+09  9.83e-01 1.02e-08  3.38e+01    36s
  28   1.23461560e+09  1.26920301e+09  7.54e-01 1.12e-08  2.70e+01    37s
  29   1.23560348e+09  1.26640423e+09  6.86e-01 9.75e-09  2.39e+01    37s
  30   1.23902084e+09  1.26320946e+09  4.67e-01 1.09e-08  1.87e+01    38s
  31   1.24072706e+09  1.26027386e+09  3.75e-01 1.34e-08  1.51e+01    38s
  32   1.24316277e+09  1.25868617e+09  2.56e-01 1.02e-08  1.20e+01    39s
  33   1.24458341e+09  1.25686080e+09  1.99e-01 1.00e-08  9.48e+00    39s
  34   1.24579872e+09  1.25571338e+09  1.55e-01 9.08e-09  7.65e+00    40s
  35   1.24737586e+09  1.25378357e+09  1.02e-01 9.90e-09  4.92e+00    41s
  36   1.24850829e+09  1.25315473e+09  6.68e-02 8.96e-09  3.59e+00    41s
  37   1.24907581e+09  1.25292337e+09  5.16e-02 1.07e-08  2.98e+00    42s
  38   1.24914377e+09  1.25272630e+09  4.99e-02 1.12e-08  2.77e+00    42s
  39   1.24957123e+09  1.25247159e+09  3.86e-02 1.05e-08  2.25e+00    43s
  40   1.25010787e+09  1.25222847e+09  2.64e-02 9.32e-09  1.65e+00    43s
  41   1.25028239e+09  1.25194957e+09  2.23e-02 8.15e-09  1.29e+00    44s
  42   1.25037867e+09  1.25185500e+09  2.01e-02 9.31e-09  1.14e+00    44s
  43   1.25068279e+09  1.25182820e+09  1.34e-02 1.07e-08  8.93e-01    45s
  44   1.25077785e+09  1.25163027e+09  1.14e-02 9.43e-09  6.60e-01    45s
  45   1.25096888e+09  1.25148576e+09  7.40e-03 8.15e-09  3.99e-01    46s
  46   1.25110506e+09  1.25145404e+09  4.56e-03 8.07e-09  2.71e-01    46s
  47   1.25116107e+09  1.25138647e+09  3.41e-03 8.61e-09  1.74e-01    47s
  48   1.25125120e+09  1.25136265e+09  1.58e-03 8.50e-09  8.63e-02    47s
  49   1.25129100e+09  1.25134870e+09  7.89e-04 8.10e-09  4.48e-02    48s
  50   1.25130625e+09  1.25134290e+09  4.91e-04 7.68e-09  2.85e-02    48s
  51   1.25131626e+09  1.25133644e+09  3.01e-04 8.70e-09  1.56e-02    48s
  52   1.25132163e+09  1.25133417e+09  1.95e-04 8.69e-09  9.70e-03    49s
  53   1.25132348e+09  1.25133344e+09  1.60e-04 8.81e-09  7.69e-03    49s
  54   1.25132517e+09  1.25133261e+09  1.29e-04 7.70e-09  5.74e-03    50s
  55   1.25132969e+09  1.25133243e+09  4.54e-05 7.74e-09  2.12e-03    50s
  56   1.25133161e+09  1.25133226e+09  1.01e-05 7.50e-09  5.06e-04    51s
  57   1.25133208e+09  1.25133219e+09  1.63e-06 7.80e-09  8.49e-05    51s
  58   1.25133217e+09  1.25133218e+09  1.04e-07 8.96e-09  6.67e-07    51s
  59   1.25133217e+09  1.25133217e+09  4.35e-10 7.60e-09  2.77e-11    52s

Barrier solved model in 59 iterations and 51.94 seconds (43.18 work units)
Optimal objective 1.25133217e+09


Root crossover log...

   16979 DPushes remaining with DInf 0.0000000e+00                52s
       0 DPushes remaining with DInf 0.0000000e+00                53s

    1573 PPushes remaining with PInf 0.0000000e+00                53s
       0 PPushes remaining with PInf 0.0000000e+00                53s

  Push phase complete: Pinf 0.0000000e+00, Dinf 1.2346187e-07     53s


Root simplex log...

Iteration    Objective       Primal Inf.    Dual Inf.      Time
   18555    1.2513322e+09   0.000000e+00   0.000000e+00     53s
Concurrent spin time: 0.17s

Solved with barrier
   18555    1.2513322e+09   0.000000e+00   0.000000e+00     54s

Root relaxation: objective 1.251332e+09, 18555 iterations, 33.50 seconds (23.85 work units)
Total elapsed time = 55.01s

    Nodes    |    Current Node    |     Objective Bounds      |     Work
 Expl Unexpl |  Obj  Depth IntInf | Incumbent    BestBd   Gap | It/Node Time

     0     0 1.2513e+09    0  574          - 1.2513e+09      -     -   58s

Explored 1 nodes (38973 simplex iterations) in 60.03 seconds (46.36 work units)
Thread count was 20 (of 40 available processors)

Solution count 0

Time limit reached
Best objective -, best bound 1.251332174595e+09, gap -
IIS computation: initial model status unknown, solving to determine model status
Presolve removed 13755 rows and 12692 columns (presolve time = 5s) ...
Presolve removed 13755 rows and 12692 columns (presolve time = 10s) ...
Presolve removed 13755 rows and 12743 columns (presolve time = 15s) ...
Presolve removed 13693 rows and 12681 columns
Presolve time: 15.18s
Presolved: 21769 rows, 614497 columns, 3284832 nonzeros
Variable types: 1475 continuous, 613022 integer (612994 binary)
Deterministic concurrent LP optimizer: primal simplex, dual simplex, and barrier
Showing barrier log only...

Root barrier log...

Ordering time: 0.89s

Barrier statistics:
 AA' NZ     : 1.548e+06
 Factor NZ  : 1.506e+07 (roughly 400 MB of memory)
 Factor Ops : 3.769e+10 (less than 1 second per iteration)
 Threads    : 17

                  Objective                Residual
Iter       Primal          Dual         Primal    Dual     Compl     Time
   0  -0.00000000e+00  1.26332753e+05  5.23e+09 0.00e+00  1.26e+04    23s
   1  -0.00000000e+00  2.27445530e+05  1.09e+09 3.25e-02  2.65e+03    24s
   2  -0.00000000e+00  2.33898005e+05  7.08e+07 1.19e-03  1.74e+02    24s
   3  -0.00000000e+00  1.25741374e+05  3.13e+06 1.72e-05  7.80e+00    24s
   4  -0.00000000e+00  5.13047850e+04  3.25e+05 6.78e-06  6.77e-01    25s
   5  -0.00000000e+00  2.61918121e+04  2.53e+05 3.42e-06  4.13e-01    25s
   6  -0.00000000e+00  1.25401238e+04  2.32e+04 1.57e-06  3.31e-02    26s
   7  -0.00000000e+00  5.41055678e+03  1.09e+04 6.96e-07  1.18e-02    26s
   8  -0.00000000e+00  1.81313331e+03  1.92e+03 2.16e-07  2.33e-03    27s
   9  -0.00000000e+00  8.41550910e+02  8.87e+02 9.93e-08  1.00e-03    27s
  10  -0.00000000e+00  5.67841566e+02  4.00e+02 6.65e-08  5.95e-04    28s
  11  -0.00000000e+00  1.61715426e+02  1.06e+02 2.68e-08  1.63e-04    28s
  12  -0.00000000e+00  8.21244529e+01  6.23e+01 1.60e-08  8.48e-05    29s
  13  -0.00000000e+00  7.52111963e+01  3.71e+01 1.26e-08  7.21e-05    29s
  14  -0.00000000e+00  4.62984653e+01  3.32e+01 9.02e-09  4.74e-05    29s
  15  -0.00000000e+00  4.06780121e+01  1.91e+01 5.53e-09  3.88e-05    30s
  16  -0.00000000e+00  1.93384576e+01  1.27e+01 6.42e-09  1.95e-05    30s
  17  -0.00000000e+00  1.09694546e+01  6.58e+00 4.37e-09  1.08e-05    31s
  18  -0.00000000e+00  5.17612500e+00  2.29e+00 1.32e-08  4.75e-06    31s
  19  -0.00000000e+00  2.98035729e+00  9.65e-01 1.30e-08  2.62e-06    32s
  20  -0.00000000e+00  7.34775730e-01  4.95e-01 1.27e-08  6.78e-07    32s
  21  -0.00000000e+00  5.97988509e-02  6.78e-02 6.52e-09  6.52e-08    33s
  22  -0.00000000e+00  6.53865598e-04  1.71e-04 2.15e-10  7.69e-10    33s
  23  -0.00000000e+00  4.00277528e-08  5.46e-09 1.56e-14  4.68e-14    33s
  24  -0.00000000e+00  1.24230757e-13  7.33e-11 2.16e-16  1.48e-19    34s

Barrier solved model in 24 iterations and 33.79 seconds (32.93 work units)
Optimal objective -0.00000000e+00

  Building initial crossover basis                                40s
  Building initial crossover basis                                45s
  Building initial crossover basis                                50s
  Building initial crossover basis                                55s
  Building initial crossover basis                                60s


Root relaxation: time limit, 0 iterations, 41.32 seconds (35.73 work units)

Explored 1 nodes (0 simplex iterations) in 60.18 seconds (55.86 work units)
Thread count was 20 (of 40 available processors)

Solution count 0

Time limit reached
Best objective -, best bound -0.000000000000e+00, gap -
IIS runtime: 60.20 seconds (55.86 work units)
